out/bwp_9_13_1_lp.out
15
-0 8    2 12
4 12    8 14
3 8    5 10
6 8    8 10
8 2    8 2
8 4    8 4
8 5    8 5
8 7    8 7
3 11    3 11
3 12    3 12
-0 13    1 14
2 13    3 14
0 0    7 7
